matrix = [|
  4, 60, 1, 2, 18, 10, 5, 25, 32, 11, 4, 13, 24, 31, 20, 15, 19, 9, 27, 29, 12, 3, 26, 22, 0, 0, 0, 0, 0, 0, 0, 0, 0, 0, 0, 0, 0, 0 |
  7, 72, 0, 8, 10, 30, 29, 34, 22, 16, 32, 13, 21, 26, 12, 33, 0, 0, 0, 0, 0, 0, 0, 0, 0, 0, 0, 0, 0, 0, 0, 0, 0, 0, 0, 0, 0, 0 |
  5, 57, 1, 6, 20, 31, 18, 15, 23, 13, 29, 0, 0, 0, 0, 0, 0, 0, 0, 0, 0, 0, 0, 0, 0, 0, 0, 0, 0, 0, 0, 0, 0, 0, 0, 0, 0, 0 |
  5, 47, 1, 26, 25, 19, 22, 20, 16, 32, 0, 0, 0, 0, 0, 0, 0, 0, 0, 0, 0, 0, 0, 0, 0, 0, 0, 0, 0, 0, 0, 0, 0, 0, 0, 0, 0, 0 |
  9, 53, 1, 25, 17, 29, 34, 5, 15, 2, 30, 0, 0, 0, 0, 0, 0, 0, 0, 0, 0, 0, 0, 0, 0, 0, 0, 0, 0, 0, 0, 0, 0, 0, 0, 0, 0, 0 |
  4, 45, 1, 34, 6, 15, 32, 20, 5, 33, 12, 1, 9, 29, 18, 25, 30, 22, 11, 27, 13, 2, 26, 0, 0, 0, 0, 0, 0, 0, 0, 0, 0, 0, 0, 0, 0, 0 |
  2, 47, 1, 8, 5, 15, 2, 34, 19, 1, 31, 25, 32, 4, 22, 16, 33, 29, 18, 9, 10, 26, 27, 24, 0, 0, 0, 0, 0, 0, 0, 0, 0, 0, 0, 0, 0, 0 |
  6, 70, 1, 12, 10, 15, 32, 23, 24, 4, 22, 6, 0, 0, 0, 0, 0, 0, 0, 0, 0, 0, 0, 0, 0, 0, 0, 0, 0, 0, 0, 0, 0, 0, 0, 0, 0, 0 |
  1, 56, 1, 4, 33, 13, 34, 24, 20, 27, 8, 30, 25, 31, 0, 0, 0, 0, 0, 0, 0, 0, 0, 0, 0, 0, 0, 0, 0, 0, 0, 0, 0, 0, 0, 0, 0, 0 |
  3, 62, 1, 27, 22, 13, 5, 3, 30, 23, 34, 29, 17, 26, 19, 1, 4, 12, 0, 0, 0, 0, 0, 0, 0, 0, 0, 0, 0, 0, 0, 0, 0, 0, 0, 0, 0, 0 |
  2, 43, 0, 6, 26, 30, 4, 10, 13, 12, 35, 21, 20, 2, 0, 0, 0, 0, 0, 0, 0, 0, 0, 0, 0, 0, 0, 0, 0, 0, 0, 0, 0, 0, 0, 0, 0, 0 |
  1, 64, 1, 20, 27, 12, 16, 26, 24, 34, 33, 8, 29, 2, 13, 31, 1, 25, 9, 10, 23, 6, 4, 32, 0, 0, 0, 0, 0, 0, 0, 0, 0, 0, 0, 0, 0, 0 |
  4, 51, 1, 4, 8, 27, 3, 25, 24, 15, 17, 20, 26, 23, 9, 10, 19, 33, 5, 2, 0, 0, 0, 0, 0, 0, 0, 0, 0, 0, 0, 0, 0, 0, 0, 0, 0, 0 |
  4, 61, 1, 29, 32, 25, 17, 19, 18, 6, 33, 4, 24, 20, 10, 11, 34, 3, 9, 8, 31, 23, 30, 0, 0, 0, 0, 0, 0, 0, 0, 0, 0, 0, 0, 0, 0, 0 |
  1, 61, 1, 5, 2, 9, 16, 4, 11, 27, 13, 0, 0, 0, 0, 0, 0, 0, 0, 0, 0, 0, 0, 0, 0, 0, 0, 0, 0, 0, 0, 0, 0, 0, 0, 0, 0, 0 |
  3, 73, 1, 5, 9, 12, 3, 30, 29, 22, 4, 15, 16, 26, 0, 0, 0, 0, 0, 0, 0, 0, 0, 0, 0, 0, 0, 0, 0, 0, 0, 0, 0, 0, 0, 0, 0, 0 |
  4, 71, 1, 26, 15, 6, 11, 8, 29, 24, 0, 0, 0, 0, 0, 0, 0, 0, 0, 0, 0, 0, 0, 0, 0, 0, 0, 0, 0, 0, 0, 0, 0, 0, 0, 0, 0, 0 |
  2, 74, 0, 9, 15, 23, 18, 5, 34, 27, 32, 19, 29, 2, 11, 1, 17, 0, 0, 0, 0, 0, 0, 0, 0, 0, 0, 0, 0, 0, 0, 0, 0, 0, 0, 0, 0, 0 |
  5, 78, 1, 19, 32, 22, 10, 17, 26, 12, 15, 33, 5, 6, 0, 0, 0, 0, 0, 0, 0, 0, 0, 0, 0, 0, 0, 0, 0, 0, 0, 0, 0, 0, 0, 0, 0, 0 |
  1, 76, 1, 6, 5, 24, 17, 10, 9, 3, 19, 31, 12, 33, 23, 0, 0, 0, 0, 0, 0, 0, 0, 0, 0, 0, 0, 0, 0, 0, 0, 0, 0, 0, 0, 0, 0, 0 |
  4, 66, 1, 5, 13, 6, 20, 33, 19, 30, 23, 11, 4, 16, 22, 24, 8, 25, 0, 0, 0, 0, 0, 0, 0, 0, 0, 0, 0, 0, 0, 0, 0, 0, 0, 0, 0, 0 |
  7, 74, 1, 34, 9, 25, 12, 19, 11, 16, 18, 23, 20, 17, 13, 10, 32, 15, 24, 8, 22, 0, 0, 0, 0, 0, 0, 0, 0, 0, 0, 0, 0, 0, 0, 0, 0, 0 |
  1, 70, 1, 11, 3, 29, 30, 10, 26, 18, 5, 31, 13, 1, 32, 9, 23, 2, 25, 0, 0, 0, 0, 0, 0, 0, 0, 0, 0, 0, 0, 0, 0, 0, 0, 0, 0, 0 |
  2, 76, 1, 19, 34, 5, 12, 24, 16, 2, 32, 17, 29, 26, 23, 1, 15, 33, 4, 6, 18, 25, 20, 0, 0, 0, 0, 0, 0, 0, 0, 0, 0, 0, 0, 0, 0, 0 |
  4, 64, 1, 34, 27, 25, 31, 33, 18, 24, 3, 9, 20, 32, 2, 22, 1, 10, 0, 0, 0, 0, 0, 0, 0, 0, 0, 0, 0, 0, 0, 0, 0, 0, 0, 0, 0, 0 |
  10, 50, 1, 19, 33, 27, 10, 2, 25, 15, 22, 9, 26, 20, 29, 32, 31, 11, 16, 0, 0, 0, 0, 0, 0, 0, 0, 0, 0, 0, 0, 0, 0, 0, 0, 0, 0, 0 |
  2, 65, 1, 18, 1, 15, 5, 20, 16, 12, 32, 9, 17, 11, 0, 0, 0, 0, 0, 0, 0, 0, 0, 0, 0, 0, 0, 0, 0, 0, 0, 0, 0, 0, 0, 0, 0, 0 |
  9, 67, 1, 20, 8, 4, 33, 16, 15, 17, 2, 5, 22, 6, 12, 34, 24, 23, 27, 10, 0, 0, 0, 0, 0, 0, 0, 0, 0, 0, 0, 0, 0, 0, 0, 0, 0, 0 |
  2, 63, 1, 24, 15, 30, 8, 2, 32, 17, 9, 11, 5, 26, 0, 0, 0, 0, 0, 0, 0, 0, 0, 0, 0, 0, 0, 0, 0, 0, 0, 0, 0, 0, 0, 0, 0, 0 |
  5, 41, 1, 34, 15, 31, 20, 3, 23, 9, 13, 30, 0, 0, 0, 0, 0, 0, 0, 0, 0, 0, 0, 0, 0, 0, 0, 0, 0, 0, 0, 0, 0, 0, 0, 0, 0, 0 |
  5, 40, 1, 31, 33, 17, 3, 22, 1, 9, 29, 0, 0, 0, 0, 0, 0, 0, 0, 0, 0, 0, 0, 0, 0, 0, 0, 0, 0, 0, 0, 0, 0, 0, 0, 0, 0, 0 |
  2, 80, 1, 30, 22, 18, 32, 4, 23, 8, 31, 5, 2, 6, 16, 1, 3, 19, 20, 34, 15, 17, 0, 0, 0, 0, 0, 0, 0, 0, 0, 0, 0, 0, 0, 0, 0, 0 |
  2, 60, 0, 35, 14, 31, 29, 18, 7, 27, 21, 13, 0, 0, 0, 0, 0, 0, 0, 0, 0, 0, 0, 0, 0, 0, 0, 0, 0, 0, 0, 0, 0, 0, 0, 0, 0, 0 |
  2, 62, 1, 13, 2, 6, 23, 8, 10, 4, 16, 1, 24, 34, 9, 33, 0, 0, 0, 0, 0, 0, 0, 0, 0, 0, 0, 0, 0, 0, 0, 0, 0, 0, 0, 0, 0, 0 |
  5, 57, 1, 15, 3, 2, 1, 25, 6, 29, 33, 34, 30, 9, 17, 0, 0, 0, 0, 0, 0, 0, 0, 0, 0, 0, 0, 0, 0, 0, 0, 0, 0, 0, 0, 0, 0, 0 |
  10, 73, 1, 11, 1, 27, 4, 15, 16, 19, 24, 2, 26, 13, 8, 17, 31, 23, 22, 12, 30, 18, 32, 33, 0, 0, 0, 0, 0, 0, 0, 0, 0, 0, 0, 0, 0, 0 |
  3, 41, 1, 22, 26, 24, 30, 6, 10, 27, 33, 2, 32, 29, 15, 3, 20, 0, 0, 0, 0, 0, 0, 0, 0, 0, 0, 0, 0, 0, 0, 0, 0, 0, 0, 0, 0, 0 |
  1, 61, 1, 17, 6, 15, 16, 13, 8, 26, 11, 18, 24, 27, 0, 0, 0, 0, 0, 0, 0, 0, 0, 0, 0, 0, 0, 0, 0, 0, 0, 0, 0, 0, 0, 0, 0, 0 |
  4, 45, 0, 8, 6, 24, 10, 31, 1, 15, 11, 0, 0, 0, 0, 0, 0, 0, 0, 0, 0, 0, 0, 0, 0, 0, 0, 0, 0, 0, 0, 0, 0, 0, 0, 0, 0, 0 |
  9, 63, 0, 20, 33, 22, 7, 28, 26, 15, 12, 9, 11, 24, 14, 29, 30, 34, 1, 21, 3, 6, 0, 0, 0, 0, 0, 0, 0, 0, 0, 0, 0, 0, 0, 0, 0, 0 |
|];
